SPARKNaCl/why3-z3/sparknacl-hashing-sha2_common.adb_286_38_range_check_1.smt2
;; produced by z3_gnatprove.drv ;;
(set-info :smt-lib-version 2.5)
(set-info :source |VC generated by SPARK 2014|)
(set-info :category industrial)
(set-info :status unknown)
;;; generated by SMT-LIB2 driver
;;; SMT-LIB2 driver: bit-vectors, common part
;;; SMT-LIB2: integer arithmetic
(define-fun __cdiv ((x Int) (y Int)) Int (ite (>= x 0) (div x y) (- (div (- x) y))))
(define-fun __cmod ((x Int) (y Int)) Int (ite (>= x 0) (mod x y) (- (mod (- x) y))))
(declare-datatypes ()
  ((int__ref (int__refqtmk (int__content Int)))))

(declare-datatypes ()
  ((t__ref (t__refqtmk (t__content (_ BitVec 8))))))

(declare-datatypes ()
  ((t__ref1 (t__refqtmk1 (t__content1 (_ BitVec 64))))))

(declare-sort byte 0)

;; "to_rep"
(declare-fun to_rep (byte) (_ BitVec 8))

;; "of_rep"
(declare-fun of_rep ((_ BitVec 8)) byte)

;; "inversion_axiom"
(assert
  (forall ((x byte)) (! (= (of_rep (to_rep x)) x) :pattern ((to_rep x)) )))

;; "range_axiom"
(assert true)

;; "coerce_axiom"
(assert
  (forall ((x (_ BitVec 8)))
    (! (= (to_rep (of_rep x)) x) :pattern ((to_rep (of_rep x))) )))

(declare-sort map1 0)

(declare-datatypes ()
  ((map__ref (map__refqtmk (map__content map1)))))

;; "has_bounds"
(declare-fun has_bounds (map1
  Int
  Int) Bool)

;; "get"
(declare-fun get (map1
  Int) byte)

(declare-const iv map1)

(declare-sort tinteger_32B 0)

;; "tinteger_32B'int"
(declare-fun tinteger_32Bqtint (tinteger_32B) Int)

;; "tinteger_32B'axiom"
(assert
  (forall ((i tinteger_32B))
    (and
      (<= (- 2147483648) (tinteger_32Bqtint i))
      (<= (tinteger_32Bqtint i) 2147483647))))

;; "in_range"
(define-fun in_range ((x Int)) Bool
  (and (<= (- 2147483648) x) (<= x 2147483647)))

;; "to_rep"
(define-fun to_rep1 ((x tinteger_32B)) Int
  (tinteger_32Bqtint x))

;; "of_rep"
(declare-fun of_rep1 (Int) tinteger_32B)

;; "inversion_axiom"
(assert
  (forall ((x tinteger_32B))
    (! (= (of_rep1 (to_rep1 x)) x) :pattern ((to_rep1 x)) )))

;; "range_axiom"
(assert
  (forall ((x tinteger_32B))
    (! (in_range (to_rep1 x)) :pattern ((to_rep1 x)) )))

;; "coerce_axiom"
(assert
  (forall ((x Int))
    (! (=> (in_range x) (= (to_rep1 (of_rep1 x)) x)) :pattern ((to_rep1
                                                                 (of_rep1 x))) )))

;; "in_range"
(define-fun in_range1 ((x Int)) Bool
  (and (<= 0 x) (<= x 2147483647)))

(declare-datatypes ()
  ((t (tqtmk (rec__first tinteger_32B)(rec__last tinteger_32B)))))

;; "dynamic_property"
(define-fun dynamic_property ((range_first Int) (range_last Int) (low Int) (high Int)) Bool
  (and
    (in_range low)
    (and
      (in_range high)
      (=> (<= low high) (and (in_range1 low) (in_range1 high))))))

(declare-datatypes ()
  ((us_t (us_tqtmk (elts map1)(rt t)))))

;; "first"
(define-fun first ((a us_t)) Int
  (to_rep1 (rec__first (rt a))))

;; "last"
(define-fun last ((a us_t)) Int
  (to_rep1 (rec__last (rt a))))

;; "length"
(define-fun length ((a us_t)) Int
  (ite (<= (first a) (last a)) (+ (- (last a) (first a)) 1) 0))

;; "well_formed"
(define-fun well_formed ((a us_t)) Bool
  (has_bounds
    (elts a)
    (to_rep1 (rec__first (rt a)))
    (to_rep1 (rec__last (rt a)))))

(declare-const m us_t)

;; "in_range"
(define-fun in_range2 ((x Int)) Bool
  (and (<= (- 2147483648) x) (<= x 2147483647)))

;; "dynamic_invariant"
(define-fun dynamic_invariant ((temp___expr_329 us_t) (temp___is_init_325 Bool) (temp___skip_constant_326 Bool) (temp___do_toplevel_327 Bool) (temp___do_typ_inv_328 Bool)) Bool
  (and
    (=>
      (not (= temp___skip_constant_326 true))
      (dynamic_property
        0
        2147483647
        (first temp___expr_329)
        (last temp___expr_329)))
    (well_formed temp___expr_329)))

;; "in_range"
(define-fun in_range3 ((x Int)) Bool
  (and (<= 0 x) (<= x 127)))

;; "temp_____aggregate_def_729"
(declare-fun temp_____aggregate_def_729 ((_ BitVec 8)) map1)

(declare-const output map1)

(declare-const x map1)

(declare-const b Int)

(declare-const final_block_first Int)

(declare-const ml_msb (_ BitVec 8))

(declare-const ml_lsbs (_ BitVec 64))

;; "ml_lsbs'unused"
(define-fun ml_lsbsqtunused () t__ref1
  (t__refqtmk1 ml_lsbs))

;; "ml_msb'unused"
(define-fun ml_msbqtunused () t__ref
  (t__refqtmk ml_msb))

;; "final_block_first'unused"
(define-fun final_block_firstqtunused () int__ref
  (int__refqtmk final_block_first))

;; "b'unused"
(define-fun bqtunused () int__ref
  (int__refqtmk b))

;; "x'unused"
(define-fun xqtunused () map__ref
  (map__refqtmk x))

;; "Assume"
(assert (has_bounds output 0 63))

;; "Assume"
(assert (has_bounds iv 0 63))

;; "Assume"
(assert (dynamic_invariant m true false true true))

(declare-const h map1)

;; "h'unused"
(define-fun hqtunused () map__ref
  (map__refqtmk h))

;; "H"
(assert (= h iv))

;; "Assume"
(assert (has_bounds h 0 63))

;; "Assume"
(assert true)

;; "Assume"
(assert (has_bounds x 0 255))

;; "Assume"
(assert true)

;; "Assume"
(assert (in_range3 b))

;; "Assume"
(assert true)

;; "Assume"
(assert (in_range2 final_block_first))

;; "Assume"
(assert true)

;; "Assume"
(assert true)

;; "Assume"
(assert true)

;; "Assume"
(assert true)

(declare-const temp___733 map1)

;; "H"
(assert (has_bounds temp___733 0 255))

;; "H"
(assert
  (forall ((temp___732 Int))
    (! (=>
         (and (<= 0 temp___732) (<= temp___732 255))
         (= (to_rep (get temp___733 temp___732)) #x00)) :pattern ((get
                                                                    temp___733
                                                                    temp___732)) )))

;; "H"
(assert (= temp___733 (temp_____aggregate_def_729 #x00)))

;; "temp_____aggregate_def_729'result'unused"
(define-fun temp_____aggregate_def_729qtresultqtunused () map1
  temp___733)

(declare-const x1 map1)

;; "x'unused"
(define-fun xqtunused1 () map__ref
  (map__refqtmk x1))

;; "H"
(assert (= x1 temp___733))

;; "map__content'result'unused"
(define-fun map__contentqtresultqtunused () map1
  h)

(declare-const h1 map1)

;; "h'unused"
(define-fun hqtunused1 () map__ref
  (map__refqtmk h1))

;; "H"
(assert (has_bounds h1 0 63))

;; "H"
(assert true)

;; "H"
(assert true)

;; "o"
(define-fun o () Int
  (length m))

;; "length'result'unused"
(define-fun lengthqtresultqtunused () Int
  o)

;; Goal "def'vc"
;; File "sparknacl-hashing-sha2_common.ads", line 26, characters 0-0
(assert
  (not (<= (- 9223372036854775808) o)))

(check-sat)
